NAME: tsp_291
COMMENT: Random TSP instance
TYPE: TSP
DIMENSION: 50
EDGE_WEIGHT_TYPE: EUC_2D
NODE_COORD_SECTION
1 749 9
2 610 887
3 377 875
4 511 849
5 220 502
6 132 794
7 89 382
8 608 303
9 82 772
10 996 367
11 819 330
12 126 807
13 963 116
14 280 76
15 748 463
16 620 217
17 74 847
18 227 991
19 309 30
20 382 655
21 749 617
22 931 555
23 665 722
24 453 77
25 530 902
26 677 773
27 117 174
28 508 573
29 432 917
30 83 475
31 81 265
32 927 213
33 555 293
34 569 444
35 587 986
36 211 104
37 797 905
38 707 27
39 927 353
40 793 427
41 756 32
42 539 984
43 645 828
44 385 883
45 912 385
46 107 796
47 103 345
48 246 588
49 654 250
50 331 966
